SAT
-1 -100 -99 -98 97 -88 -6 -56 -21 72 49 8 -27 -87 -48 33 -39 -86 -51 -19 -17 5 -77 43 -94 -96 80 81 18 11 -28 -73 58 31 -75 -2 -4 85 46 92 -38 35 -30 -12 -52 -82 68 -95 41 -53 -16 34 61 25 26 -42 -55 22 -57 -14 -23 32 90 69 -29 -67 -13 15 84 -59 -78 24 -10 89 -83 63 44 3 70 -76 20 93 -50 -40 74 -65 9 -7 79 -47 36 62 91 -64 66 60 45 54 71 37 0
